

























































































49 75 69 
61 6 37 
39 46 0 
64 59 58 
73 30 45 
67 68 54 
50 33 51 53 
16 74 36 
15 2 35 
12 25 72 
26 7 21 
56 8 43 
24 40 17 
71 28 4 62 
22 14 41 
76 3 38 
11 31 66 
55 32 27 
42 63 60 
19 20 18 23 
48 34 65 
10 52 1 
70 29 9 
44 5 13 
47 57 
